outputs/case_477.model.txt
underwriting_data_recorded_correctly = False
claim_handling_properly = False
total_medical_expense_paid = 0
medical_expense_limit_per_victim_per_accident = 1
article_138_3_1_3_compliance = True
article_138_related_compliance = True
violation_fund_management_146_9 = True
violation_fund_management_and_investment = False
article_138_3_compliance = True
article_138_2_2_compliance = True
article_47_2_compliance = True
article_138_2_7_compliance = True
violation_article_18_or_20 = False
article_138_1_compliance = True
correct_record_and_claim_handling = False
loan_limit_and_resolution_compliance = True
article_8_compliance = True
violation_fund_management_146_6_reporting = True
violation_fund_management_146_5_approval = True
violation_fund_management_146_1_2_3_4_5 = True
violation_article_8 = False
violation_article_144_5_by_actuaries = False
article_143_5_compliance = True
article_143_compliance = True
article_19_2_compliance = True
product_approved_by_authority = False
product_not_requiring_approval = False
days_since_sales_start = 0
product_filed_for_record = False
insurance_product_review_approved = False
article_138_5_compliance = True
accounting_and_financial_reporting_compliance = True
article_145_compliance = True
article_15_compliance = True
article_46_related_compliance = True
article_144_5_actuary_compliance = True
article_47_1_compliance = True
violation_article_143 = False
violation_fund_management_146_1_3_5_7_6_8 = True
article_45_4_compliance = True
violation_loan_guarantee_and_limit = False
violation_article_45_4_or_47_1_2_or_related_accounting = False
violation_loan_without_sufficient_collateral = False
violation_loan_limit_and_resolution = False
article_143_6_measures_compliance = True
article_144_1_4_compliance = True
article_20_compliance = True
article_138_2_5_compliance = True
violation_article_15_19_or_article_46_related_record_claim_notify = False
article_18_1_compliance = True
article_138_2_4_compliance = True
violation_article_144_145 = False
article_19_1_compliance = True
daily_room_fee_difference = 0
daily_meal_fee = 0
prosthetic_upper_lower_limb_fee = 0
dental_prosthesis_fee = 0
dental_prosthesis_total_fee = 0
ocular_prosthesis_fee = 0
other_medical_materials_fee = 0
transportation_fee = 0
daily_care_fee = 0
care_days = 0
medical_expense_components_limit = 1
subrogation_amount = 0
insurance_payment_amount = 0
subrogation_limit = 1
penalty = False
violation_article_138_2_and_others = False
days_since_application_complete = 0
days_since_resubmission = 0
insurance_product_review_timing_compliance = True
violation_article_138_and_related = False
loan_guarantee_and_limit_compliance = True
special_compensation_excludes_nhi = False
compensation_excludes_nhi_payment = False
loan_without_sufficient_collateral_compliance = True
violation_article_143_5_and_6_measures = False